[2026-03-24T00:39:33.255Z] Pipeline "set_big_5-7_big_5-7_s001_g002" → 2026_03_24_00_39_33_set_big_5-7_big_5-7_s001_g002_max.sol
Set parameter WLSAccessID
Set parameter WLSSecret
Set parameter LicenseID to value 2792458
Set parameter LogFile to value "gurobi.log"
Using license file /root/gurobi.lic
Academic license 2792458 - for non-commercial use only - registered to an___@studenti.unipg.it

Gurobi Optimizer version 13.0.1 build v13.0.1rc0 (linux64 - "Ubuntu 24.04.4 LTS")
Copyright (c) 2026, Gurobi Optimization, LLC

Warning: Duplicate section found (read 'binary') - Is a variable name equal to an LP file format keyword?
Warning: Duplicate section found (read 'binary') - Is a variable name equal to an LP file format keyword?
Warning: Duplicate section found (read 'binary') - Is a variable name equal to an LP file format keyword?
Warning: Duplicate section found (read 'binary') - Is a variable name equal to an LP file format keyword?
Warning: Duplicate section found (read 'binary') - Is a variable name equal to an LP file format keyword?
Warning: Duplicate section found (read 'binary') - Is a variable name equal to an LP file format keyword?
Warning: Duplicate section found (read 'binary') - Is a variable name equal to an LP file format keyword?
Warning: Duplicate section found (read 'binary') - Is a variable name equal to an LP file format keyword?
Warning: Duplicate section found (read 'binary') - Is a variable name equal to an LP file format keyword?
Warning: Duplicate section found (read 'binary') - Is a variable name equal to an LP file format keyword?
Warning: Further warnings of this type will be omitted.
Read LP format model from file /root/bgw/data/uploads/2026_03_24_00_39_33_set_big_5-7_big_5-7_s001_g002_max.lp
Reading time = 0.00 seconds
: 765 rows, 128 columns, 2299 nonzeros

Using Gurobi shared library /opt/gurobi1301/linux64/lib/libgurobi.so.13.0.1

CPU model: AMD EPYC-Genoa Processor, instruction set [SSE2|AVX|AVX2|AVX512]
Thread count: 16 physical cores, 16 logical processors, using up to 16 threads

Academic license 2792458 - for non-commercial use only - registered to an___@studenti.unipg.it
Optimize a model with 765 rows, 128 columns and 2299 nonzeros (Max)
Model fingerprint: 0x5058fbcc
Model has 16 linear objective coefficients
Variable types: 29 continuous, 99 integer (99 binary)
Coefficient statistics:
  Matrix range     [1e+00, 1e+01]
  Objective range  [1e+00, 1e+00]
  Bounds range     [1e+00, 1e+00]
  RHS range        [1e+00, 2e+01]

Found heuristic solution: objective 16.0000000
Presolve removed 168 rows and 35 columns
Presolve time: 0.00s
Presolved: 597 rows, 93 columns, 1841 nonzeros
Variable types: 0 continuous, 93 integer (88 binary)
Found heuristic solution: objective 23.0000000

Root relaxation: objective 8.600000e+01, 53 iterations, 0.00 seconds (0.00 work units)

    Nodes    |    Current Node    |     Objective Bounds      |     Work
 Expl Unexpl |  Obj  Depth IntInf | Incumbent    BestBd   Gap | It/Node Time

     0     0   86.00000    0   15   23.00000   86.00000   274%     -    0s
H    0     0                      37.0000000   86.00000   132%     -    0s
H    0     0                      44.0000000   86.00000  95.5%     -    0s
     0     0   86.00000    0   16   44.00000   86.00000  95.5%     -    0s
     0     0   86.00000    0   13   44.00000   86.00000  95.5%     -    0s
     0     0   86.00000    0   13   44.00000   86.00000  95.5%     -    0s
     0     0   86.00000    0   13   44.00000   86.00000  95.5%     -    0s
     0     0   82.18182    0   13   44.00000   82.18182  86.8%     -    0s
     0     0   82.18182    0   13   44.00000   82.18182  86.8%     -    0s
     0     0   79.00000    0   14   44.00000   79.00000  79.5%     -    0s
     0     0   79.00000    0   13   44.00000   79.00000  79.5%     -    0s
     0     0   79.00000    0   13   44.00000   79.00000  79.5%     -    0s
     0     0   79.00000    0   13   44.00000   79.00000  79.5%     -    0s
     0     0   77.72727    0   14   44.00000   77.72727  76.7%     -    0s
     0     0   77.72727    0   15   44.00000   77.72727  76.7%     -    0s
     0     0   77.72727    0   14   44.00000   77.72727  76.7%     -    0s
     0     0   71.04545    0   14   44.00000   71.04545  61.5%     -    0s
     0     0   70.72727    0   14   44.00000   70.72727  60.7%     -    0s
     0     0   70.72727    0   14   44.00000   70.72727  60.7%     -    0s
     0     0   70.72727    0   14   44.00000   70.72727  60.7%     -    0s
     0     0   70.72727    0   14   44.00000   70.72727  60.7%     -    0s
     0     2   70.72727    0   14   44.00000   70.72727  60.7%     -    0s

Cutting planes:
  Gomory: 6
  MIR: 1
  Inf proof: 3
  Zero half: 2

Explored 563 nodes (8967 simplex iterations) in 0.15 seconds (0.10 work units)
Thread count was 16 (of 16 available processors)

Solution count 4: 44 37 23 16 

Optimal solution found (tolerance 1.00e-04)
Best objective 4.400000000000e+01, best bound 4.400000000000e+01, gap 0.0000%

Wrote result file '/root/bgw/data/results/2026_03_24_00_39_33_set_big_5-7_big_5-7_s001_g002_max.sol'

